
%FILE DATA:	Soccer Computational Problem for MiniZinc Models	%
%AUTHOR:	Jack Wall	%
%CONTACT:  	116397063@umail.ucc.ie			%
%LAST UPDATE:	02/19/2020, 12:16:33						%
%DESCRIPTION: 	80 games played with 10 games left				%


n=10; %number of teams

%Games to play
games=[|9,3|10,9|9,10|7,10|6,5|7,1|2,1|5,2|9,2|8,6|];

%Initial points
iPoints=[29,20,22,26,19,25,20,22,16,22];

%POSITION CONSTRAINTS
% [|teamID, operator, position|...]
% operators index:
%  1 for =  operator
%  2 for >  operator
%  3 for >= operator
%  4 for <  operator
%  5 for <= operator
positionConstraints=[|2,3,1|1,4,3|6,1,3|7,5,4|];